3 
6 
1 
3 
1 
1 
4 
2 
4 
13 
1 
9 
6 
1 
2 
2 
6 
6 
4 
5 
2 
3 
4 
5 
5 
1 
9 
6 
9 
7 
6 
4 
4 
1 
1 
6 
4 
4 
2 
9 
1 
8 
9 
10 
4 
3 
7 
4 
7 
4 
6 
6 
5 
4 
6 
2 
2 
13 
7 
3 
7 
6 
8 
7 
5 
2 
7 
6 
1 
2 
9 
6 
8 
6 
5 
8 
3 
5 
2 
2 
2 
5 
7 
7 
7 
4 
5 
8 
4 
5 
6 
3 
7 
2 
6 
10 
5 
6 
2 
3 
